20
1 0 3
2 0 2
2 1 1
3 0 3
3 1 3
3 2 2
4 0 1
4 1 1
4 2 3
4 3 2
5 0 2
5 1 3
5 2 1
5 3 3
5 4 2
6 0 1
6 1 3
6 2 1
6 3 2
6 4 2
6 5 3
7 0 2
7 1 1
7 2 3
7 3 2
7 4 1
7 5 3
7 6 2
8 0 3
8 1 2
8 2 2
8 3 2
8 4 3
8 5 1
8 6 2
8 7 2
9 0 1
9 1 2
9 2 3
9 3 3
9 4 1
9 5 2
9 6 1
9 7 1
9 8 3
10 0 2
10 1 3
10 2 3
10 3 1
10 4 1
10 5 3
10 6 3
10 7 3
10 8 1
10 9 3
11 0 3
11 1 2
11 2 1
11 3 3
11 4 1
11 5 3
11 6 1
11 7 2
11 8 1
11 9 3
11 10 1
12 0 3
12 1 2
12 2 2
12 3 1
12 4 2
12 5 3
12 6 1
12 7 3
12 8 2
12 9 1
12 10 3
12 11 3
13 0 3
13 1 2
13 2 1
13 3 1
13 4 1
13 5 3
13 6 2
13 7 2
13 8 1
13 9 1
13 10 1
13 11 1
13 12 2
14 0 2
14 1 1
14 2 3
14 3 2
14 4 1
14 5 3
14 6 2
14 7 1
14 8 3
14 9 2
14 10 3
14 11 2
14 12 1
14 13 3
15 0 2
15 1 2
15 2 3
15 3 3
15 4 2
15 5 1
15 6 3
15 7 1
15 8 3
15 9 2
15 10 3
15 11 1
15 12 2
15 13 3
15 14 3
16 0 2
16 1 1
16 2 3
16 3 1
16 4 2
16 5 3
16 6 1
16 7 2
16 8 1
16 9 3
16 10 1
16 11 1
16 12 3
16 13 1
16 14 3
16 15 3
17 0 2
17 1 3
17 2 2
17 3 2
17 4 3
17 5 2
17 6 1
17 7 2
17 8 3
17 9 2
17 10 1
17 11 2
17 12 3
17 13 2
17 14 1
17 15 2
17 16 2
18 0 3
18 1 3
18 2 3
18 3 3
18 4 2
18 5 2
18 6 3
18 7 2
18 8 2
18 9 3
18 10 2
18 11 3
18 12 2
18 13 3
18 14 3
18 15 3
18 16 2
18 17 2
19 0 3
19 1 2
19 2 1
19 3 1
19 4 3
19 5 3
19 6 1
19 7 3
19 8 3
19 9 1
19 10 1
19 11 2
19 12 2
19 13 1
19 14 1
19 15 3
19 16 1
19 17 3
19 18 1
